words_hard_train/1737.qaiger
aag 127 24 0 1 103
2
4
12
20
22
26
30
34
38
42
52
54
58
60
72
74
86
88
100
102
114
116
128
130
254
6 3 4
8 2 5
10 7 9
14 10 13
16 11 12
18 15 17
24 21 23
28 24 27
32 28 31
36 32 35
40 36 39
44 40 43
46 18 45
48 19 44
50 47 49
56 52 54
62 59 61
64 58 60
66 63 65
68 56 66
70 69 65
76 73 75
78 72 74
80 77 79
82 71 80
84 83 79
90 87 89
92 86 88
94 91 93
96 85 94
98 97 93
104 101 103
106 100 102
108 105 107
110 99 108
112 111 107
118 115 117
120 114 116
122 119 121
124 113 122
126 125 121
132 129 131
134 128 130
136 133 135
138 127 136
140 139 135
142 51 141
144 50 140
146 143 145
148 112 123
150 149 125
152 37 38
154 153 41
156 151 155
158 25 26
160 159 29
162 70 81
164 163 83
166 161 165
168 84 95
170 169 97
172 29 30
174 173 33
176 171 175
178 167 177
180 20 22
182 57 67
184 181 183
186 20 23
188 57 66
190 187 189
192 53 55
194 191 193
196 185 195
198 197 69
200 198 25
202 160 164
204 201 203
206 178 205
208 98 109
210 209 111
212 33 34
214 213 37
216 210 214
218 207 217
220 170 174
222 218 221
224 157 223
226 211 215
228 224 227
230 150 154
232 229 231
234 126 137
236 235 139
238 41 42
240 239 45
242 236 240
244 232 243
246 237 241
248 245 247
250 147 249
252 146 248
254 251 253
i0 2 y1[7]
i1 1 x1[7]
i2 2 y2[7]
i3 2 y2[0]
i4 2 y2[1]
i5 2 y2[2]
i6 2 y2[3]
i7 2 y2[4]
i8 2 y2[5]
i9 2 y2[6]
i10 2 y1[0]
i11 1 x1[0]
i12 2 y1[1]
i13 1 x1[1]
i14 2 y1[2]
i15 1 x1[2]
i16 2 y1[3]
i17 1 x1[3]
i18 2 y1[4]
i19 1 x1[4]
i20 2 y1[5]
i21 1 x1[5]
i22 2 y1[6]
i23 1 x1[6]
o0 bv[0]
c
simplified
  <=
    >> 5
      1
    subtract
      add
        2 y1
        1 x1
      2 y2
