words_hard_train/1737.qaiger.qdimacs
p cnf 127 310
a 65 2 37 44 51 58 27 30 0
e 1 3 4 5 6 7 8 9 10 11 12 13 14 15 16 17 18 19 20 21 22 23 24 25 26 28 29 31 32 33 34 35 36 38 39 40 41 42 43 45 46 47 48 49 50 52 53 54 55 56 57 59 60 61 62 63 64 66 67 68 69 70 71 72 73 74 75 76 77 78 79 80 81 82 83 84 85 86 87 88 89 90 91 92 93 94 95 96 97 98 99 100 101 102 103 104 105 106 107 108 109 110 111 112 113 114 115 116 117 118 119 120 121 122 123 124 125 126 127 0
1 -2 3 0
-1 -3 0
2 -3 0
-1 2 4 0
1 -4 0
-2 -4 0
3 4 5 0
-3 -5 0
-4 -5 0
-5 6 7 0
5 -7 0
-6 -7 0
5 -6 8 0
-5 -8 0
6 -8 0
7 8 9 0
-7 -9 0
-8 -9 0
10 11 12 0
-10 -12 0
-11 -12 0
-12 13 14 0
12 -14 0
-13 -14 0
-14 15 16 0
14 -16 0
-15 -16 0
-16 17 18 0
16 -18 0
-17 -18 0
-18 19 20 0
18 -20 0
-19 -20 0
-20 21 22 0
20 -22 0
-21 -22 0
-9 22 23 0
9 -23 0
-22 -23 0
9 -22 24 0
-9 -24 0
22 -24 0
23 24 25 0
-23 -25 0
-24 -25 0
-26 -27 28 0
26 -28 0
27 -28 0
29 30 31 0
-29 -31 0
-30 -31 0
-29 -30 32 0
29 -32 0
30 -32 0
31 32 33 0
-31 -33 0
-32 -33 0
-28 -33 34 0
28 -34 0
33 -34 0
34 32 35 0
-34 -35 0
-32 -35 0
36 37 38 0
-36 -38 0
-37 -38 0
-36 -37 39 0
36 -39 0
37 -39 0
38 39 40 0
-38 -40 0
-39 -40 0
35 -40 41 0
-35 -41 0
40 -41 0
41 39 42 0
-41 -42 0
-39 -42 0
43 44 45 0
-43 -45 0
-44 -45 0
-43 -44 46 0
43 -46 0
44 -46 0
45 46 47 0
-45 -47 0
-46 -47 0
42 -47 48 0
-42 -48 0
47 -48 0
48 46 49 0
-48 -49 0
-46 -49 0
50 51 52 0
-50 -52 0
-51 -52 0
-50 -51 53 0
50 -53 0
51 -53 0
52 53 54 0
-52 -54 0
-53 -54 0
49 -54 55 0
-49 -55 0
54 -55 0
55 53 56 0
-55 -56 0
-53 -56 0
57 58 59 0
-57 -59 0
-58 -59 0
-57 -58 60 0
57 -60 0
58 -60 0
59 60 61 0
-59 -61 0
-60 -61 0
56 -61 62 0
-56 -62 0
61 -62 0
62 60 63 0
-62 -63 0
-60 -63 0
64 65 66 0
-64 -66 0
-65 -66 0
-64 -65 67 0
64 -67 0
65 -67 0
66 67 68 0
-66 -68 0
-67 -68 0
63 -68 69 0
-63 -69 0
68 -69 0
69 67 70 0
-69 -70 0
-67 -70 0
25 70 71 0
-25 -71 0
-70 -71 0
-25 -70 72 0
25 -72 0
70 -72 0
71 72 73 0
-71 -73 0
-72 -73 0
-56 61 74 0
56 -74 0
-61 -74 0
74 62 75 0
-74 -75 0
-62 -75 0
18 -19 76 0
-18 -76 0
19 -76 0
76 20 77 0
-76 -77 0
-20 -77 0
75 77 78 0
-75 -78 0
-77 -78 0
12 -13 79 0
-12 -79 0
13 -79 0
79 14 80 0
-79 -80 0
-14 -80 0
-35 40 81 0
35 -81 0
-40 -81 0
81 41 82 0
-81 -82 0
-41 -82 0
80 82 83 0
-80 -83 0
-82 -83 0
-42 47 84 0
42 -84 0
-47 -84 0
84 48 85 0
-84 -85 0
-48 -85 0
14 -15 86 0
-14 -86 0
15 -86 0
86 16 87 0
-86 -87 0
-16 -87 0
85 87 88 0
-85 -88 0
-87 -88 0
83 88 89 0
-83 -89 0
-88 -89 0
-10 -11 90 0
10 -90 0
11 -90 0
28 33 91 0
-28 -91 0
-33 -91 0
90 91 92 0
-90 -92 0
-91 -92 0
-10 11 93 0
10 -93 0
-11 -93 0
28 -33 94 0
-28 -94 0
33 -94 0
93 94 95 0
-93 -95 0
-94 -95 0
26 27 96 0
-26 -96 0
-27 -96 0
95 96 97 0
-95 -97 0
-96 -97 0
92 97 98 0
-92 -98 0
-97 -98 0
98 34 99 0
-98 -99 0
-34 -99 0
-99 12 100 0
99 -100 0
-12 -100 0
-80 -82 101 0
80 -101 0
82 -101 0
100 101 102 0
-100 -102 0
-101 -102 0
-89 102 103 0
89 -103 0
-102 -103 0
-49 54 104 0
49 -104 0
-54 -104 0
104 55 105 0
-104 -105 0
-55 -105 0
16 -17 106 0
-16 -106 0
17 -106 0
106 18 107 0
-106 -107 0
-18 -107 0
-105 -107 108 0
105 -108 0
107 -108 0
103 108 109 0
-103 -109 0
-108 -109 0
-85 -87 110 0
85 -110 0
87 -110 0
-109 110 111 0
109 -111 0
-110 -111 0
78 111 112 0
-78 -112 0
-111 -112 0
105 107 113 0
-105 -113 0
-107 -113 0
-112 113 114 0
112 -114 0
-113 -114 0
-75 -77 115 0
75 -115 0
77 -115 0
114 115 116 0
-114 -116 0
-115 -116 0
-63 68 117 0
63 -117 0
-68 -117 0
117 69 118 0
-117 -118 0
-69 -118 0
20 -21 119 0
-20 -119 0
21 -119 0
119 22 120 0
-119 -120 0
-22 -120 0
-118 -120 121 0
118 -121 0
120 -121 0
-116 121 122 0
116 -122 0
-121 -122 0
118 120 123 0
-118 -123 0
-120 -123 0
122 123 124 0
-122 -124 0
-123 -124 0
73 124 125 0
-73 -125 0
-124 -125 0
-73 -124 126 0
73 -126 0
124 -126 0
125 126 127 0
-125 -127 0
-126 -127 0
127 0
